Instance Name : r106
Date : 2022-07-18
Solution
Route 1 : 92 37 14 44 38 86 91 85 100 98 59
Route 2 : 40 53 6 13
Route 3 : 83 45 16 61 99 84 5 60 89
Route 4 : 50 33 65 71 66 20 32 70 1
Route 5 : 7 47 36 19 90 10
Route 6 : 29 76 79 78 68 24 80 12
Route 7 : 52 62 88 18 8 46 17 93 96
Route 8 : 27 28 73 41 22 75 56 74 72 21
Route 9 : 26 39 23 67 55 54 4 25
Route 10 : 31 63 11 64 49 48 82
Route 11 : 94 95 42 15 57 87 97 43 2 58
Route 12 : 69 30 51 81 9 35 34 3 77
